100 100
33 13 34 45 11 33 41 25 40 40 30 24 11 27 29 16 23 22 19 31 24 32 35 13 26 44 38 32 20 10 19 12 13 23 40 43 26 22 26 46
14 21 26 31 27 16 46 35 26 28 35 23 38 16 20 41 41 44 18 17 47 42 37 22 12 14 37 32 27 48 37 49 38 24 15 14 46 46 42 18
462 273 884 1395 297 528 1886 875 1040 1120 1050 552 418 432 580 656 943 968 342 527 1128 1344 1295 286 312 616 1406 1024 540 480 703 588 494 552 600 602 1196 1012 1092 828
